
 102   30
  10   10   10   10   10   10   10   10   10   10   10   10   10   10   10   10   10   10   10   10   10   10   10   10   10   10   10   10   10   10

   0   0   0   0   0   0   0   0   0   0   0   0   0   0   0   0   0   0   0   0   0   0   0   0   0   0   0   0   0   0   0  30 2 3 4 5 6 7 8 9 10 11 12 13 14 15 16 17 18 19 20 21 22 23 24 26 27 28 30 31 32 40 
   3   0   2   0   0   0   0   0   0   0   0   4   0   0   0   0   0   0   0   0   0   0   0   0   0   0   0   0   0   0   1  21 101 64 62 61 60 59 57 56 55 54 53 51 48 46 45 43 41 39 38 35 33 
   3   0   0   1   0   0   0   0   0   0   0   0   0   1   0   1   2   0   0   0   0   0   0   0   0   0   0   0   0   1   7  15 101 74 67 64 62 59 56 55 54 52 47 44 42 41 25 
   7   0   6   3   0   0   0   0   0   0   0   0   0   0   0   6   0   0   0   2   1   0   0   1   0   0   0   2   0   0   0  13 101 99 73 62 60 58 54 45 43 41 38 37 25 
  10   0   0   0   2   0   0   0   0   0   0   0   0   0   0   0   5   0   0   0   0   0   0   0   0   0   0   4   0   0   5  16 100 98 74 68 61 60 57 56 52 50 48 47 46 44 35 29 
   3   0   0   0   0   0   0   0   0   0   0   5   0   0   0   0   0   1   0   0   0   0   0   0   0   0   0   0   0   0   0  16 101 73 71 68 66 63 61 60 57 55 53 50 48 43 34 33 
   7   0   0   0   0   0   0   0   0   0   0   0   0   0   1   0   0   0   0   5   0   0   0   0   1   4   0   0   0   0   0  15 100 98 97 74 73 68 62 61 59 55 54 46 41 38 29 
  10   0   3   0   0   1   0   0   0   0   0   0   0   0   0   0   7   0   0   7   0   0   0   0   0   3   0   9   0   0   5   9 97 63 57 55 46 43 39 36 29 
   9   0   0   6   0   0   0   0   0   0   0   0   0   0   0   0   0   0   0   0   0   0   2   0   0   0   3   0   0   0   0  12 97 72 68 62 61 59 58 55 50 46 43 29 
   3   0   0   0   0   0   0   0   0   0   0   4   0   0   0   0   0   0   0   0   0   0   0   0   0   0   0   0   0   0   0  22 101 99 97 95 94 93 90 89 88 75 73 72 68 66 65 63 62 55 50 49 45 43 
   4   0   0   0   0   6   1   0   0   0   0   0   0   0   0   0   0   0   0   0   7   0   0   9   0   9   0   0   0   0   0  18 101 100 98 96 74 73 70 67 66 61 57 55 53 52 51 49 45 34 
   3   0   5   8   0   0   0   0   0   0   0   5   0   0   7   0   2   0   0   0   0   0   0   0   0   0   0   0   0   0   0  14 99 96 75 71 68 65 61 59 57 54 47 45 43 38 
   7   0   0   0   0   0   0   0   0   0   0   0   0   0   0  10   0   0   0   0   0   0   0   0   0   0   3   0   0   0   0  18 99 97 89 75 74 72 70 68 66 64 62 60 58 57 55 49 48 42 
  10   0   0   0   0   0   6   0   0   0   0   0   0  10   0   0   0   0   0   0   0   2   0   0   8   0   0   0   0   0   0  17 100 96 95 93 75 74 72 70 66 65 61 59 57 56 55 53 45 
  10   0   0   3   4   0   7   0   0   0   0   7   0   0   0   0   0   0   0   0   0   5   0   0   0   0   0   3   0   0   4  17 99 98 96 95 93 89 75 73 70 67 65 64 58 57 49 45 39 
   6   0   0   4   0   6   0   0   0   1   0   0   0   0   0   0   0   0   0   0   0   0   0   0   0   0   0   0   0   0   0  16 101 99 98 97 96 91 73 68 66 64 59 55 54 52 51 46 
   1   1   0   0   0   0   0   0   0   0   0   0   0   0   0   0   0   0   0   0   0   0   0   0   0   0   0   0   0   0   0  22 99 97 96 94 93 91 90 88 75 74 73 72 71 70 69 68 67 65 63 61 55 47 
   3   3   0   0   0   0   0   0   0   0   0   0   0   0   0   0   0   0   1   0   0   0   5   0   0   0   0   8   0   0   0  15 99 95 94 93 92 89 72 68 66 58 57 52 50 48 43 
   3   0   4   0  10   0   0   0   0   0   1   0   0   0   0   0   0  10   0   0   0  10   0   0   0   0   0   0   0   0   0  17 101 98 97 95 94 93 89 88 75 74 73 67 66 55 52 51 50 
   9   0   0   0   0   0   0   0   0   0   3   0   0   3   0   0   0   6   0   6   5   8   0   0   0   6   0   0   0   0   0  16 101 99 96 94 93 92 73 69 68 66 65 58 57 54 53 49 
   8   0   0   0   0   0   6   0   0   3   6   0   1   0   0   0   0   0   0  10   0   0   0   0   0   0   0   5   0   0   0  12 95 90 75 74 71 70 68 65 64 61 45 38 
  10   0   0   0   0   0   0   0   0   0   0   0   6  10   0   0   0   0   0   0   0   0   0   0   0   0   0   7   0   0   0  12 101 100 98 97 96 91 75 71 67 66 57 34 
   9   0   0   0   0   0   0   0   0   0   0   0   0   0   0   0   0   9   0   0   0   0   0   0   0   0   0   0   2   0   0  16 97 95 94 93 92 89 83 74 72 70 66 62 58 57 52 49 
   7   7   0   0   0   0   0   1   0   0   0   0   7   6   0   0   0   0   0   0   0   0   0   0   0   0   0   0   0   0   0  13 101 99 97 96 90 85 81 71 70 68 67 47 38 
   8   0   0   0   0   0   0   0   0   0   0   0   0   0   0   0   0   0   7   7   0   0   0   0   0   0   0   0   0   0   0  18 98 97 95 93 92 90 88 84 83 75 72 70 69 66 65 63 61 49 
   2   0   0   0   5   0   0   0   1   0   0   0   5   0   0   0   0   0   0   0   0   0   0   6   0   0   6   0   0   0   0  16 98 97 92 86 82 75 74 73 71 70 69 67 64 63 60 51 
   6   0   0   0   0   0   0   0   0   0   2   0   0   0   8   0   0   0   0   0   9   0   0   0   0   0   0   0   0   0   0  14 100 94 93 92 90 89 85 82 80 67 65 58 54 44 
   3   0   5   0   9   0   0   0   0   7   0   0   0   0   0   0   6   0   7   0   0   0   0   0   0   0   0   0   0   0   0  15 100 99 98 95 94 90 88 87 76 74 69 65 62 55 53 
   8   0   6   0   0   0   0   0   0   0   0   0   0   0   0   0   0   0   0   5   9   0   0   0   0   3   0   5   0   0   0  13 101 99 96 95 93 90 82 77 70 67 66 65 45 
   6   0   0   4   0   0   0   0   0   0   0   0   0   0   4   7   0   0   0   4   0   0   0   0   0   0   0   0   0   0   0   7 98 94 93 65 57 53 45 
   3   9   8   0   0   0   7   6   7   0   0   0   0   5   0   0   0   0   0   7   0   0   0   0   0   8   0   0   0   0   0  11 99 93 90 88 72 69 68 65 63 55 49 
   6   0   0   0   0   0   0   3   0   0   0   0   6   0   0   0   0   0   0   0   0   0   0   0   0   0   0   0   0   0   0   8 96 86 72 71 70 65 55 43 
   5   0   0   0   0   0   5   0   0   0   0   7   5   0   0   0   0  10   0   0   0   7   0   0   0   0   0   0   0   0   0  17 96 93 92 91 90 89 87 86 85 82 80 79 78 75 74 70 67 
   6   7   0   0   0   0   0   9   0   0   0   0   0   0   0   0   0   0   0   0   0   0   0   0   0   0   0   0   0   0   0  16 95 94 93 90 89 88 87 86 85 84 81 77 76 72 69 65 
   5   0   9   3   0   0   0   0   6   0   0   0   0   0   0   0   4   0   0   0   0   0   0   0   0   0   0   0   0   0   0  14 97 94 93 92 89 85 84 83 82 81 77 76 66 65 
   9   0   3   0   0   0   0   0   0   0   0   0   0   0   0   0   0   0   0   0   0   0   0   0   0   5   0   0   0   0   0  13 99 98 96 95 94 93 88 87 83 74 73 68 65 
   1   0   0   0   0   0   0   0   5   0   0   0   8   0   0   0   0   0   0   6   0   0   0   0   0   0   0   0   0   0   0  10 96 91 89 88 83 81 76 69 65 55 
   5   0   0   0   0   0   0   0   0   0   0   0   0   0   0   0   0   0   0   0   0   9   0   0   0   0   0   0   4   0   0  13 94 93 91 89 88 84 80 79 78 77 76 72 66 
   3   0   0   0   0   0   3   0   0   0   0   0   0   0   0   0   5   0   0   0   0   0   0   6   6   0   0   0   0   0   0  11 100 91 90 84 83 81 79 78 72 71 68 
   4  10   0   0   0   0   0   6   7   0   0   0   0   0   0   9   0   0   0   0   4   0   0   0   0   0   0   0   0   0   0   8 93 91 89 83 80 72 65 58 
   5   0   0   0   0   0   0   0   0   0   0   0   3   0   0   8   0   0   0   0   0   0   0   8   0   0   0   0   0   0   0  11 96 91 89 86 85 83 81 78 77 76 69 
  10   0   0   0   0   0   0   0   0   0   0   0   0   0   0   0   0   3   4   0   0   0   0   0   0   0   0   0   0   9   0  10 100 95 92 91 90 85 84 82 76 65 
   2   0   0   0   0   0   0   0   5   0  10   6   0   0   0   0   0   0   0   0   0   0   0   0   0   0   6   0   0   7   0   9 100 98 82 81 79 78 77 69 67 
   2   0   0   0   0   0   0   5   0   0   0   0   4   0   0   0   0   0   8   0   0   0   0   0   0   0  10   0   0   0   0   9 91 88 84 81 79 78 77 70 66 
   9   0   0   0   0   0   0   0   0   0   0   0   0   0   0   6   4   0   0   5   0   0   0   0   0   0   5   0   0   0   0  10 92 91 87 86 85 84 83 81 76 69 
   6   3   0   0   0   0   0   2   0   0   0   0   0   0   0   0   0   0   0   0   0   7   0   0   0   0   0   0   0   8   0  10 93 89 86 84 83 82 81 80 79 71 
   9   0   0   0   0   8   0   8   0   6   0   0   0   0   0   0   0   0   0   0   0   0   0   0   0   0   0   0   0   0   0   9 95 89 86 83 82 80 78 77 76 
   7   0   0   0   0   0   0   0   0   0   0   0   6   0   0   0   0   0   0   0   7   0   5   0   0   0   0   0   0   0   0   9 90 87 86 85 83 82 81 77 76 
   4   0   5   0   0   4  10   0   0   0   0   0   0   0   0   0   0   4   0   0   0   0   0   0   0   0   0   0   0   0   0   7 85 82 81 80 79 78 71 
   9   0   0   8   0   0   0   5   0   0   0   0   0   0   0   0   0   0   0   0   0   0   0   0   0   0   0   0   8   0   0   7 96 91 84 79 78 77 70 
   7   5   0   0   0   0   0   0   0   0   0   0   0   0   0   0   0   0   4   0   0   0   0   0   8   0   0   4   0   0   0   6 90 81 80 77 76 65 
   6   0   0   0   0   0   0   0   0  10   0   0   0   0   0   0   0   0   0   0   0   0   0   0   0   0   0   0   6   0   0   5 86 84 77 69 65 
   5   0   0   0   5   0   0   8   0   0   0   6   0   0   0   0   9   0   0   0   0   0   0   0   0  10   0   0   0   0   6   7 97 91 89 82 80 78 77 
   8   0   0   9   0   5   0   0   0   0   0   0   5   0   0   0   7   0   0   0   0   0   0   0   0   0   0   0   0   0   0   6 95 84 83 79 77 70 
   7   0   0   0   0   0   6   0   0   0   0   5   0   3   0   0   0   0   0  10   0   0   0   0   0   0   0   0   0   0   0   6 92 85 84 82 78 77 
   2   0   6   0   0   0   0   0   0   9   0   0   0   0   0   0  10   0   0   0   0   0   0   0   0   0   0   0   0   0   0   5 99 87 82 77 73 
   5   0   0  10   6   0   0   7   5   0   7   0   0   0   0   0   5   0   0   0   0   0   0   0   0   0   0   0   0   7   0   5 90 88 78 77 76 
   7   0   0   0   0   0   0   0   0   0   7   0   5   0   0   0   0   0   0   0   0   4   0   0   6   0   0   0   0   0   0   4 88 78 77 76 
   8   0   0   0   0   0   0   0   0   0   0   0   0   0   0   0   0   0   0   0   0   0   0   0   0   2   0   0   0   0   0   4 94 89 78 76 
   2   0   0   0   7   0   0   0   0   0   0   0   0   0   0   0   0   5   0   0   0   0   0   0   0   0   0   6   0   0   0   4 85 80 79 78 
   1   0   0   0   0   0   0   5   0   0   0   0   0   0   0   0   0   6   7   0   0   0   0   0   0   0   0   0   0   0   0   3 81 77 76 
   1   0   0   0   9   0   0   0  10   0   0   0   0   0   0   0   0   0   0   0   0   0   0   0   7   0   0  10   0   0   0   3 80 79 78 
  10   6   0   0   0   0   4   0   0   0   6   9   0   0   0   0   0   0   0   4   0   0  10   0   0   0   0   0   0   0   0   3 87 80 76 
   6   0   0   0   0   0   0   0   0   0   0   0   0   0   0   0   0   0   0   7   0   0   0   0   0   0   0   0   0   0   0   3 94 88 77 
   3   0  10   0   0   0   0   0   0   0   9   0   0   0   0   0   0   6   0   0   0   5   0   0   0  10   0   0   0   0   0   2 79 78 
   7   0   0   0   0   0   0   0   0   0   0   3   0   0   0   3  10   0   0   0   0   0   5   0   0   0   0   0   0   0   0   2 87 86 
  10   9   0   0   0   0   0   7   9   0   0   0   0   6   0   0   0   0   0   0   0   7   7   0   0   8   0   0   0   0   0   2 83 76 
   7   0   0   0   0   8   0   0   0   0   0   0   9   0   7   0   5   0   0   0   0   0   0   0   0   0   0   0   0   0   0   2 80 76 
   2   5   0   0   4   0   0   0   0   7   0   0   0   0   0   0   0   0   0   0   0   0   0   0   0   0   0   0   0   0   0   1 80 
   5   0   0   0   6   0   8   0   0   5   0   0   0   0   6   0   0   0   0   0   0   0   6   7   0   0   0   0   0   5   0   1 76 
   2   0   0   8   0   0   0   0   0   5   0   0   0  10   0   0   0   6   7   0   0   0   0   8   0   0   0   0   0   0   0   1 77 
   2   0   0   0   5   0   0   0   0   0   8   0   0   0   0   0   0   0   0   0   0   0   0   0   0   5   0   0   0   0   0   1 82 
   5   0   0   5   0   0   0   0   0   0   0   5   0   6   0   0   0   0   0   0   6   0   0   2   0   0   0   7   0   0   0   1 79 
   3   0   0   0   0   0   9   0   0   0   7   0   0   0   0   0   0   0   6   0   0   0   0   4   0   0   0   0   0   0   0   1 81 
   1   0   0   0   0   0   0   0   0   0   0   0   0   0   0   0   0   0   0   0   7   0   0   0   0   0   0   0   0   5   0   1 81 
   2   0   0   0   0   0   0   0   0   0   0   0   8   0   0   0   0   0   0   0   0   0   0   0   0   0   0   0   0   0   0   1 102
   1   0   0   8   0   0   0   0   0   0   0   0   0   0   0   0   0   0   0   0   0   3   5   0   0   0   6   0   0   0   0   1 102
   5   0   7   0   0   0   0   9   0   0   0   0   0   0   0   0   0   0   0   0   0   0   0   0   6   0   0   0  10   0   0   1 102
   8   0   0   6   0   0   0   0   0   0   0   0   0   0   0   0   0   0   0   0   0   3   0   0   0   0   0   0   0   0   0   1 102
   4   0   0   0   0   0   0   0   0   0   0   0   0   3   0   0   0   0   0   0   3   0   0   0   0   0   0   0   0   0   0   1 102
   4   0   0   0   8   0   0   0   0   0   0   0   0   0   0   0   0   0   0   0   0   0   0   0   0   0   0   7   0   0   0   1 102
   7   0   0   0   0   0   0   0   0   6   0   5   0   0   0   0   0   0   9   9   0   0   0   4   0   0   0   0   0   0   0   1 102
   2   0   0  10   0   0   0   0   6   0   0   0   0   0   0   0   0   0   0   0   0   0   0   0   0   0   0   0   0   0  10   1 102
   4   0   5   0   4   0   0   0   0   0   0   7   0   8   0   0   0   0   0   5   0   6   0   0   0   0   0   0   0   0   0   1 102
  10   0   0   0   0   0   0   0   0   0   0   5   0   0   0   0   9   0   0   0   0   0   0   0   0   0   0   0   0   0   0   1 102
   6   0   5   0   0   0   0   0   0   0   0   0   0   0   0   0   7   0   0   0   0   0   0   0   0   0   0   0   0   0   7   1 102
   4   0   0   0   0   0   0   9   0   0   0   0   0   0   0   0   0   0   5   0   5   9   0   0   0   0   0   0   0   5   0   1 102
   1   0   0   0   0  10   0   0   0   0   0   0   0   0   0   4   0   0   0   0   0   8   0   0   0   0   0   7   0   0   0   1 102
   4   0   0   0   0   4   0   0   0   0   5   0   0   0   6   0   0   0   0   0   0   0   0   0   0   0   6   0   0   0   0   1 102
   3   0   0   0   0   0   0   0   0   0   5   0   0   0   0   0   0   0   3   0   0   0   0   0   0   0   0   0   0   0   0   1 102
   4   7   0   0   0   0   0   7   0   0   0   0   0   0   0   0   0   0   0   0   0   0   0   0   0   0   0   0   0   0   0   1 102
   3   0   0   0   0   7   0   0   0   0   0   6   0   7   0   0   0   0   0   0   0   0   9   0   0   0   0   0   0   0  10   1 102
   7   5   0   0   0   7   0   0   0   0   0   0   9   0   6   0   0   0   0   0   0   0   0   0   0   0   9   0   0   0   0   1 102
   3   0   0   0   0   0   0   0   0   0   0   0   9   0   0   7   0   0   0   0   0   0   0   0   0   0   0   0   0   0   3   1 102
   7   0   0   0   0   0   0   0   0   7   0   0   0   0   0   0   0   0  10   0   0   0   0   9   0   0   0   0   0   7   0   1 102
   2   0  10   0   0   0   0   0   0   0   0   0   0   0   9   0   0   0   0   0   9   0   0   0   0   0   0   0   0   0   8   1 102
   6   0   0   0   0   0   0   0   0   0   8  10   0   0   0   5   0   0   0   0   0   0   0   0   0   0   6   6   0   0   0   1 102
   6   7   0   7   0   0   0   0   0   0   0   0   0   0   0   0   0   0   0   0   0   0   0   0   0   0   0   6   0   0   0   1 102
   9   0   0   0   0   4   7   0   5   0   0   0   0   0   0   6   5   0   0   0   0   3   0   0   0   0   0   0   0   0   0   1 102
   4   0   0   0   0   8   5   0   0   0   0   0   0   0   0   0   0   0   0   0   0   0   0   0   0   0   0   0   0   0   0   1 102
   5   0   9   5   0   0   0   5   0   0   0   9   0   0   0   0   0   0   0   3   0   0   0   8   0   5   0   0   0   0   0   1 102
   0   0   0   0   0   0   0   0   0   0   0   0   0   0   0   0   0   0   0   0   0   0   0   0   0   0   0   0   0   0   0   0 
